808214
630542
740579
663279
58425
359635
53248
718611
586319
949241
567030
529074
820753
819921
248571
580080
712795
344647
1171
489406
351184
273320
780743
579809
394395
687797
734581
928795
451088
80668
322048
717880
843760
784345
871591
619830
275595
474217
943155
134225
997760
8102
812298
450091
873632
229892
324514
615253
357745
553510
955919
136893
606862
808030
687292
686836
89260
643264
907768
621658
81335
511329
797096
729447
750554
708465
351643
535897
261406
521010
42747
801590
110378
372948
199070
168893
445993
845423
968316
500909
262857
450780
760251
832433
822175
714353
870055
280166
683495
741783
231933
870155
692521
665096
42086
520260
184760
464618
664897
83723
